
List of user-set options:

                                    Name   Value                used
                           compl_inf_tol = 1                     yes
                         constr_viol_tol = 1                     yes
                            dual_inf_tol = 1000                  yes
                           linear_solver = ma97                  yes
                              ma86_small = 1e-30                  no
                                  ma86_u = 0.0001                 no
                              ma97_order = best                  yes
                              ma97_small = 1e-30                 yes
                            ma97_switch1 = at_start              yes
                            ma97_switch2 = od_hd_reuse           yes
                                  ma97_u = 1e-06                 yes
                               ma97_umax = 0.5                   yes
                                max_iter = 1000                  yes
                    max_refinement_steps = 20                    yes
                    min_refinement_steps = 5                     yes
                                 mu_init = 1e-06                 yes
           mu_superlinear_decrease_power = 1.25                  yes
                   nlp_scaling_min_value = 1e-08                 yes
                        option_file_name = Preset_Case_969_pf.opt  yes
                             output_file = ./tmp/Preset_Case_969_pf.output  yes
                      print_user_options = yes                   yes
        required_infeasibility_reduction = 1                      no
                                     tol = 1e-08                 yes
                   warm_start_bound_frac = 1e-20                 yes
                   warm_start_bound_push = 1e-20                 yes
                   warm_start_init_point = yes                   yes
              warm_start_mult_bound_push = 1e-20                 yes
                warm_start_mult_init_max = 1e+40                 yes
             warm_start_slack_bound_frac = 1e-20                 yes
             warm_start_slack_bound_push = 1e-20                 yes

******************************************************************************
This program contains Ipopt, a library for large-scale nonlinear optimization.
 Ipopt is released as open source code under the Eclipse Public License (EPL).
         For more information visit http://projects.coin-or.org/Ipopt
******************************************************************************

This is Ipopt version 3.12.10, running with linear solver ma97.

Number of nonzeros in equality constraint Jacobian...:   123443
Number of nonzeros in inequality constraint Jacobian.:      213
Number of nonzeros in Lagrangian Hessian.............:    49069

Total number of variables............................:    31591
                     variables with only lower bounds:    12912
                variables with lower and upper bounds:    15130
                     variables with only upper bounds:        0
Total number of equality constraints.................:    31483
Total number of inequality constraints...............:       25
        inequality constraints with only lower bounds:        4
   inequality constraints with lower and upper bounds:        0
        inequality constraints with only upper bounds:       21

iter    objective    inf_pr   inf_du lg(mu)  ||d||  lg(rg) alpha_du alpha_pr  ls
   0 -5.1532658e+00 4.04e-03 1.02e+00  -6.0 0.00e+00    -  0.00e+00 0.00e+00   0
   1 -5.1525716e+00 4.40e-01 3.80e+00  -6.0 4.58e+05    -  1.31e-04 2.17e-04h  4
   2 -5.1544981e+00 4.39e-01 3.32e+01  -6.0 1.64e+04    -  1.47e-01 2.14e-03h  1
   3 -5.1561171e+00 3.63e-01 9.54e+01  -6.0 5.14e+00  -4.0 4.49e-01 1.73e-01f  1
   4 -5.1740838e+00 9.34e-01 1.05e+02  -6.0 3.88e+04    -  7.02e-02 1.31e-02h  1
   5 -5.3433071e+00 2.13e+01 7.54e+02  -6.0 8.61e+03    -  1.31e-01 2.08e-01f  1
   6 -5.5852832e+00 9.12e+01 1.32e+03  -6.0 5.06e+03    -  2.51e-02 5.08e-01h  1
   7 -5.5664121e+00 6.14e+01 1.64e+06  -6.0 8.42e+00  -4.5 1.23e-02 3.26e-01h  1
   8 -5.5588825e+00 2.73e+01 6.62e+05  -6.0 2.17e+01  -5.0 1.76e-01 5.56e-01h  1
   9 -5.6036487e+00 1.62e+01 3.97e+05  -6.0 4.09e+01  -5.4 5.25e-01 4.08e-01h  1
iter    objective    inf_pr   inf_du lg(mu)  ||d||  lg(rg) alpha_du alpha_pr  ls
  10 -5.6863432e+00 3.91e+00 1.94e+04  -6.0 6.55e+01  -5.9 3.40e-01 1.00e+00h  1
  11 -5.6987982e+00 4.58e+00 1.43e+04  -6.0 2.26e+03    -  3.94e-01 2.58e-01h  1
  12 -5.7062190e+00 1.01e+01 7.80e+03  -6.0 1.63e+03    -  6.74e-01 4.53e-01h  1
  13 -5.7073819e+00 8.81e+00 6.62e+03  -6.0 8.93e+02    -  1.44e-02 1.52e-01h  1
  14 -5.7075333e+00 8.50e+00 6.38e+03  -6.0 9.21e+02    -  1.49e-01 3.62e-02h  1
  15 -5.6998843e+00 1.24e+00 9.50e+03  -6.0 6.95e+02    -  6.93e-02 9.80e-01H  1
  16 -5.7006320e+00 1.16e+00 8.35e+03  -6.0 2.27e+02    -  2.91e-01 7.75e-02h  1
  17 -5.7104691e+00 1.33e+00 6.39e+04  -6.0 2.14e+02  -6.4 1.37e-01 1.00e+00h  1
  18 -5.7104943e+00 1.33e+00 6.40e+04  -6.0 6.62e+02    -  1.31e-02 1.00e-03h  1
  19 -5.7223541e+00 1.16e+00 4.80e+04  -6.0 2.02e+02  -6.9 2.74e-03 1.00e+00f  1
iter    objective    inf_pr   inf_du lg(mu)  ||d||  lg(rg) alpha_du alpha_pr  ls
  20 -5.7257668e+00 1.13e+00 4.39e+04  -6.0 5.51e+02  -7.3 2.39e-01 8.39e-02h  1
  21 -5.7316902e+00 1.39e-01 2.31e+05  -6.0 7.60e+01  -7.8 2.30e-01 1.00e+00f  1
  22 -5.7438048e+00 7.06e-01 9.82e+03  -6.0 1.58e+02  -6.5 6.02e-01 1.00e+00h  1
  23 -5.7588569e+00 1.10e+00 4.94e+03  -6.0 2.76e+02  -7.0 4.62e-01 6.25e-01h  1
  24 -5.7497708e+00 4.30e-01 1.33e+05  -6.0 1.24e+02  -7.4 2.87e-01 1.00e+00h  1
  25 -5.7528771e+00 8.26e-02 2.51e+02  -6.0 5.07e+01  -6.1 1.00e+00 1.00e+00h  1
  26 -5.7586912e+00 1.87e-01 1.14e+00  -6.0 7.87e+01  -6.6 1.00e+00 1.00e+00h  1
  27 -5.7635529e+00 4.37e-01 9.88e+00  -6.0 1.45e+02  -7.1 1.00e+00 5.42e-01h  1
  28 -5.7649736e+00 9.25e-02 7.84e-01  -6.0 5.40e+01  -7.5 1.00e+00 1.00e+00h  1
  29 -5.7660515e+00 1.06e-01 4.12e+01  -6.0 3.38e+02  -8.0 7.42e-01 7.48e-02h  1
iter    objective    inf_pr   inf_du lg(mu)  ||d||  lg(rg) alpha_du alpha_pr  ls
  30 -5.7665079e+00 1.12e+00 3.99e+01  -6.0 5.10e+03  -8.5 2.99e-02 4.15e-02h  1
  31 -5.7699521e+00 6.62e+00 3.36e+01  -6.0 1.60e+03  -9.0 1.08e-01 3.12e-01h  1
  32 -5.7704525e+00 6.00e+00 1.60e+01  -6.0 8.36e+02  -8.5 9.16e-01 1.41e-01h  1
  33 -5.7745646e+00 3.98e+01 5.36e+01  -6.0 1.79e+03  -9.0 7.86e-01 7.26e-01h  1
  34 -5.7747445e+00 3.32e+01 2.78e+04  -6.0 1.31e+03  -9.5 5.88e-01 9.10e-01h  1
  35 -5.7768266e+00 3.04e+01 4.71e+03  -6.0 1.24e+04  -9.1 1.20e-01 8.26e-02h  1
  36 -5.7765984e+00 2.42e+01 1.86e+06  -6.0 1.76e+03  -9.6 1.70e-02 2.87e-01h  1
  37 -5.7790485e+00 6.41e+01 5.03e+05  -6.0 2.28e+03 -10.0 1.87e-03 7.29e-01h  1
  38 -5.7790311e+00 6.76e+01 4.80e+05  -6.0 1.23e+04    -  7.59e-03 4.71e-02h  2
  39 -5.7791621e+00 6.92e+01 4.62e+05  -6.0 1.27e+04 -10.5 5.70e-02 3.61e-02h  1
iter    objective    inf_pr   inf_du lg(mu)  ||d||  lg(rg) alpha_du alpha_pr  ls
  40 -5.7791850e+00 6.86e+01 4.58e+05  -6.0 4.96e+03    -  2.08e-01 9.36e-03h  1
  41 -5.7792566e+00 6.75e+01 2.33e+06  -6.0 7.88e+03    -  2.86e-04 1.80e-02h  1
  42 -5.7793699e+00 6.55e+01 2.25e+06  -6.0 4.64e+03    -  2.10e-02 3.63e-02h  1
  43 -5.7795665e+00 6.30e+01 2.12e+06  -6.0 4.45e+03    -  1.25e-03 5.84e-02h  1
  44 -5.7797526e+00 6.04e+01 1.96e+06  -6.0 4.57e+03    -  4.48e-04 7.34e-02h  1
  45 -5.7799098e+00 5.83e+01 1.82e+06  -6.0 4.99e+03    -  1.83e-04 7.05e-02h  1
  46 -5.7800816e+00 5.36e+01 1.61e+06  -6.0 2.95e+03    -  2.12e-04 1.17e-01h  1
  47 -5.7801711e+00 3.32e+01 7.13e+05  -6.0 4.74e+03    -  1.59e-01 5.58e-01H  1
  48 -5.7802803e+00 5.85e+01 7.12e+05  -6.0 6.64e+05 -11.0 2.47e-03 1.83e-03h  1
  49 -5.7802399e+00 6.37e+01 3.92e+05  -6.0 3.07e+03    -  1.61e-03 4.50e-01h  1
iter    objective    inf_pr   inf_du lg(mu)  ||d||  lg(rg) alpha_du alpha_pr  ls
  50 -5.7802381e+00 6.29e+01 3.87e+05  -6.0 1.54e+04    -  1.65e-02 1.32e-02h  4
  51 -5.7802834e+00 6.38e+01 2.58e+05  -6.0 3.45e+03    -  2.77e-01 3.33e-01h  1
  52 -5.7803320e+00 6.54e+01 2.16e+05  -6.0 5.33e+03    -  2.19e-01 1.63e-01h  1
  53 -5.7803176e+00 5.48e+01 1.37e+05  -6.0 2.58e+03    -  4.05e-02 3.67e-01h  1
  54 -5.7803115e+00 3.69e+01 8.42e+04  -6.0 1.14e+03    -  1.80e-01 3.84e-01h  1
  55 -5.7802546e+00 7.13e+00 1.46e+04  -6.0 7.20e+02    -  9.01e-01 8.26e-01h  1
  56 -5.7802192e+00 9.24e+00 1.04e+04  -6.0 1.71e+03    -  6.91e-01 2.88e-01h  1
  57 -5.7801432e+00 1.61e-01 1.52e-01  -6.0 2.75e+01  -7.9 1.00e+00 1.00e+00h  1
  58 -5.7801675e+00 3.02e-01 4.80e-02  -6.0 7.88e+01  -8.3 1.00e+00 1.00e+00h  1
  59 -5.7802148e+00 4.67e-01 2.75e+01  -6.0 2.71e+03    -  4.44e-01 5.07e-02h  1
iter    objective    inf_pr   inf_du lg(mu)  ||d||  lg(rg) alpha_du alpha_pr  ls
  60 -5.7803067e+00 5.31e+00 1.92e+00  -6.0 5.33e+02    -  1.00e+00 1.00e+00h  1
  61 -5.7805575e+00 1.68e+01 1.42e+01  -6.0 1.29e+03    -  5.59e-01 7.09e-01h  1
  62 -5.7806204e+00 2.68e+01 1.71e+01  -6.0 8.42e+03    -  9.85e-02 9.73e-02h  2
  63 -5.7806353e+00 2.44e+01 3.09e+01  -6.0 2.05e+03    -  6.49e-01 1.51e-01h  1
  64 -5.7805651e+00 2.29e+01 2.16e+01  -6.0 1.39e+03    -  1.00e+00 6.64e-01h  1
  65 -5.7805485e+00 2.25e+01 1.02e+02  -6.0 2.80e+03    -  4.21e-01 1.80e-02h  5
  66 -5.7805474e+00 2.25e+01 5.33e+02  -6.0 2.87e+03    -  1.00e+00 1.09e-03h  9
  67 -5.7805468e+00 2.24e+01 1.12e+03  -6.0 2.88e+03    -  5.17e-01 6.01e-04h 10
  68 -5.7805464e+00 2.24e+01 2.68e+03  -6.0 2.88e+03    -  7.41e-01 3.36e-04h 11
  69 -5.7809365e+00 3.71e+01 7.46e+03  -6.0 2.64e+03    -  1.34e-01 4.57e-01h  1
iter    objective    inf_pr   inf_du lg(mu)  ||d||  lg(rg) alpha_du alpha_pr  ls
  70 -5.7805426e+00 1.89e+00 3.62e+02  -6.0 3.61e+02  -7.9 7.60e-03 1.00e+00h  1
  71 -5.7804603e+00 3.44e-01 1.78e+01  -6.0 1.40e+02    -  9.48e-01 1.00e+00h  1
  72 -5.7804297e+00 2.35e-01 5.78e-02  -6.0 1.16e+02    -  1.00e+00 1.00e+00h  1
  73 -5.7804232e+00 4.57e-04 1.94e-04  -6.0 5.35e+00    -  1.00e+00 1.00e+00h  1
  74 -5.7804232e+00 4.25e-10 5.78e-10  -6.0 3.36e-03    -  1.00e+00 1.00e+00h  1
  75 -5.7805911e+00 4.01e+00 3.73e+01  -7.5 6.82e+02    -  6.18e-01 7.47e-01f  1
  76 -5.7805790e+00 1.12e+00 9.67e+00  -7.5 2.00e+02    -  9.72e-01 8.34e-01h  1
  77 -5.7805701e+00 1.86e-02 4.61e-02  -7.5 3.30e+01    -  1.00e+00 1.00e+00h  1
  78 -5.7805699e+00 1.04e-05 3.13e-06  -7.5 8.25e-01    -  1.00e+00 1.00e+00h  1
  79 -5.7805699e+00 2.85e-10 8.27e-12  -7.5 1.17e-04    -  1.00e+00 1.00e+00h  1
iter    objective    inf_pr   inf_du lg(mu)  ||d||  lg(rg) alpha_du alpha_pr  ls
  80 -5.7805715e+00 5.98e-03 8.68e-01  -9.0 2.31e+01    -  9.29e-01 8.35e-01h  1
  81 -5.7805718e+00 2.37e-04 2.25e-01  -9.0 3.84e+00    -  9.48e-01 1.00e+00h  1
  82 -5.7805718e+00 4.27e-10 4.28e-09  -9.0 4.57e-03    -  1.00e+00 1.00e+00h  1

Number of Iterations....: 82

                                   (scaled)                 (unscaled)
Objective...............:  -4.5160716949591926e+00   -5.7805717695477661e+00
Dual infeasibility......:   4.2799832393533068e-09    5.4783785463722326e-09
Constraint violation....:   4.2681162011788676e-10    4.2681162011788676e-10
Complementarity.........:   1.3289704662545200e-09    1.7010821968057856e-09
Overall NLP error.......:   4.2799832393533068e-09    5.4783785463722326e-09


Number of objective function evaluations             = 144
Number of objective gradient evaluations             = 83
Number of equality constraint evaluations            = 144
Number of inequality constraint evaluations          = 144
Number of equality constraint Jacobian evaluations   = 83
Number of inequality constraint Jacobian evaluations = 83
Number of Lagrangian Hessian evaluations             = 82
Total CPU secs in IPOPT (w/o function evaluations)   =    197.670
Total CPU secs in NLP function evaluations           =      3.804

EXIT: Optimal Solution Found.
